unsat
((set-logic NIA)
(declare-fun u!3 () Int)
(declare-fun x!1 () Int)
(declare-fun v!2 () Int)
(declare-fun y!0 () Int)
(proof
(let ((?x118 (* u00 x00)))
 (let ((?x38 (* v00 y00)))
 (let ((?x450 (+ ?x38 ?x118 (* (- 1) (* y!0 v!2)) (* (- 1) (* x!1 u!3)))))
 (let (($x1031 (<= ?x450 0)))
 (let (($x2922 (= ?x450 0)))
 (let ((?x4194 (* u00 x00 y!0 y!0 x!1 x!1 v!2 u!3 u!3)))
 (let ((?x2645 (* (- 1) (* v00 y00 x!1 x!1 x!1 v!2 u!3 u!3 u!3))))
 (let ((?x2827 (* (- 1) (* v00 y00 y!0 y!0 x!1 u!3 u!3))))
 (let ((?x1035 (* (- 1) (* y!0 v!2 u!3 u!3 u!3))))
 (let ((?x2796 (* y!0 y!0 y!0 x!1 v!2 u!3 u!3)))
 (let ((?x2791 (* u00 x00 u!3 u!3 u!3)))
 (let ((?x2793 (* (- 1) (* y!0 y!0 y!0 x!1 x!1 v!2 v!2 u!3 u!3))))
 (let ((?x2686 (* v00 y00 y!0 y!0 x!1 x!1 v!2 u!3 u!3)))
 (let ((?x1148 (* (- 1) (* u00 x00 x!1 x!1 x!1 v!2 u!3 u!3 u!3))))
 (let ((?x2299 (* y!0 x!1 x!1 x!1 v!2 v!2 u!3 u!3 u!3)))
 (let ((?x2687 (* (- 1) (* x!1 u!3 u!3 u!3 u!3))))
 (let ((?x1128 (* x!1 x!1 x!1 x!1 v!2 u!3 u!3 u!3 u!3)))
 (let ((?x4173 (* (- 1) (* u00 x00 y!0 y!0 x!1 u!3 u!3))))
 (let ((?x786 (* y!0 y!0 x!1 x!1 u!3 u!3 u!3)))
 (let ((?x3784 (* (- 1) (* y!0 y!0 x!1 x!1 x!1 v!2 u!3 u!3 u!3))))
 (let ((?x198 (* v00 y00 u!3 u!3 u!3)))
 (let ((?x3903 (+ (* 2 (* u00 x00 y!0 y!0 x!1 x!1 v!2 v!2 u!3)) ?x198 ?x3784 (* y!0 x!1 x!1 x!1 v!2 v!2 v!2 v!2 v!2) ?x786 ?x4173 ?x1128 (* (- 3) (* u00 x00 x!1 x!1 x!1 v!2 v!2 u!3 u!3)) (* (- 3) (* u00 x00 x!1 x!1 x!1 v!2 v!2 v!2 u!3)) (* u00 x00 x!1 x!1 x!1 x!1 v!2 v!2 v!2) (* v00 y00 v!2 v!2 v!2) (* u00 x00 x!1 x!1 x!1 x!1 v!2 u!3 u!3) (* (- 1) (* u00 x00 x!1 x!1 x!1 v!2 v!2 v!2 v!2)) ?x2687 (* (- 3) (* y!0 v!2 v!2 v!2 u!3)) (* (- 3) (* x!1 v!2 u!3 u!3 u!3)) (* (- 1) (* x!1 v!2 v!2 v!2 u!3)) (* (- 2) (* u00 x00 x!1 x!1 x!1 v!2 u!3)) (* 2 (* u00 x00 y!0 x!1 x!1 u!3 u!3)) (* (- 1) (* u00 x00 y!0 y!0 x!1 v!2 v!2)) ?x2299 (* 3 (* x!1 x!1 x!1 x!1 v!2 v!2 u!3 u!3 u!3)) (* 3 (* x!1 x!1 x!1 x!1 v!2 v!2 v!2 u!3 u!3)) (* x!1 x!1 x!1 x!1 v!2 v!2 u!3) (* y!0 x!1 x!1 x!1 v!2 v!2 v!2) (* (- 1) (* x!1 x!1 x!1 x!1 x!1 v!2 u!3 u!3 u!3)) (* x!1 x!1 x!1 x!1 v!2 v!2 v!2 v!2 u!3) (* 2 (* v00 y00 y!0 y!0 x!1 x!1 v!2 v!2 u!3)) (* (- 1) (* y!0 y!0 y!0 x!1 x!1 v!2 v!2 v!2 v!2)) ?x1148 (* (- 4) (* u00 x00 y!0 x!1 x!1 x!1 v!2 v!2 u!3)) (* 2 (* u00 x00 x!1 x!1 x!1 x!1 v!2 v!2 u!3)) (* (- 2) (* v00 y00 x!1 x!1 x!1 v!2 u!3)) (* (- 1) (* v00 y00 x!1 x!1 x!1 v!2 v!2)) (* (- 1) (* v00 y00 x!1 x!1 x!1 u!3 u!3)) ?x2686 (* 2 (* v00 y00 y!0 x!1 x!1 u!3 u!3)) ?x2793 ?x2791 (* 4 (* v00 y00 y!0 x!1 x!1 v!2 u!3)) ?x2796 (* 2 (* v00 y00 y!0 x!1 x!1 v!2 v!2)) (* (- 2) (* v00 y00 y!0 y!0 x!1 v!2 u!3)) ?x1035 (* (- 1) (* v00 y00 y!0 y!0 x!1 v!2 v!2)) (* 3 (* y!0 x!1 x!1 x!1 v!2 v!2 v!2 u!3 u!3)) (* 3 (* y!0 x!1 x!1 x!1 v!2 v!2 v!2 v!2 u!3)) (* (- 3) (* y!0 v!2 v!2 u!3 u!3)) (* (- 1) (* y!0 v!2 v!2 v!2 v!2)) (* (- 3) (* x!1 v!2 v!2 u!3 u!3)) (* (- 1) (* u00 x00 x!1 x!1 x!1 u!3 u!3)) (* (- 1) (* u00 x00 x!1 x!1 x!1 v!2 v!2)) ?x2827 (* 4 (* u00 x00 y!0 x!1 x!1 v!2 u!3)) (* (- 2) (* u00 x00 y!0 y!0 x!1 v!2 u!3)) (* 2 (* u00 x00 y!0 x!1 x!1 v!2 v!2)) (* 3 (* v00 y00 v!2 u!3 u!3)) (* (- 2) (* u00 x00 y!0 x!1 x!1 x!1 v!2 v!2 v!2)) ?x2645 (* (- 3) (* y!0 y!0 x!1 x!1 v!2 v!2 u!3)) (* 3 (* v00 y00 v!2 v!2 u!3)) (* (- 2) (* y!0 y!0 x!1 x!1 v!2 v!2 v!2)) (* x!1 x!1 x!1 x!1 u!3 u!3 u!3) (* 2 (* x!1 x!1 x!1 x!1 v!2 u!3 u!3)) (* (- 2) (* y!0 x!1 x!1 x!1 u!3 u!3 u!3)) (* (- 3) (* y!0 x!1 x!1 x!1 v!2 u!3 u!3)) (* (- 3) (* v00 y00 x!1 x!1 x!1 v!2 v!2 u!3 u!3)) (* (- 3) (* v00 y00 x!1 x!1 x!1 v!2 v!2 v!2 u!3)) (* (- 1) (* v00 y00 x!1 x!1 x!1 v!2 v!2 v!2 v!2)) (* 3 (* u00 x00 v!2 u!3 u!3)) (* 3 (* u00 x00 v!2 v!2 u!3)) (* u00 x00 v!2 v!2 v!2) (* 3 (* y!0 y!0 x!1 x!1 x!1 v!2 v!2 v!2 u!3)) (* 2 (* y!0 y!0 x!1 x!1 x!1 v!2 v!2 v!2 v!2)) (* (- 2) (* x!1 x!1 x!1 x!1 x!1 v!2 v!2 u!3 u!3)) (* (- 1) (* x!1 x!1 x!1 x!1 x!1 v!2 v!2 v!2 u!3)) (* 2 (* y!0 x!1 x!1 x!1 x!1 v!2 u!3 u!3 u!3)) (* (- 1) (* y!0 x!1 x!1 x!1 x!1 v!2 v!2 v!2 v!2)) (* 3 (* y!0 x!1 x!1 x!1 x!1 v!2 v!2 u!3 u!3)) (* v00 y00 x!1 x!1 x!1 x!1 v!2 u!3 u!3) (* v00 y00 x!1 x!1 x!1 x!1 v!2 v!2 v!2) (* 2 (* v00 y00 x!1 x!1 x!1 x!1 v!2 v!2 u!3)) (* (- 2) (* v00 y00 y!0 x!1 x!1 x!1 v!2 u!3 u!3)) (* (- 4) (* v00 y00 y!0 x!1 x!1 x!1 v!2 v!2 u!3)) (* (- 2) (* v00 y00 y!0 x!1 x!1 x!1 v!2 v!2 v!2)) (* v00 y00 y!0 y!0 x!1 x!1 v!2 v!2 v!2) (* (- 2) (* y!0 y!0 y!0 x!1 x!1 v!2 v!2 v!2 u!3)) (* 2 (* y!0 y!0 y!0 x!1 v!2 v!2 u!3)) (* y!0 y!0 y!0 x!1 v!2 v!2 v!2) (* u00 x00 y!0 y!0 x!1 x!1 v!2 v!2 v!2) (* (- 2) (* u00 x00 y!0 x!1 x!1 x!1 v!2 u!3 u!3)) ?x4194)))
 (let (($x833 (= ?x3903 0)))
 (let (($x3189 (not $x833)))
 (let ((?x3020 (+ ?x198 (* (- 3) (* u00 x00 y!0 y!0 x!1 u!3 u!3 u!3 u!3)) (* (- 3) (* y!0 y!0 x!1 x!1 v!2 v!2 u!3 u!3 u!3)) (* (- 1) (* y!0 y!0 y!0 x!1 u!3 u!3 u!3 u!3 u!3)) ?x3784 (* (- 1) (* v00 y00 x!1 x!1 x!1 u!3 u!3 u!3 u!3)) (* v00 y00 y!0 y!0 y!0 y!0 v!2 u!3 u!3) (* (- 3) (* v00 y00 y!0 y!0 x!1 u!3 u!3 u!3 u!3)) ?x786 (* (- 1) (* y!0 y!0 x!1 x!1 x!1 u!3 u!3 u!3 u!3)) (* 2 (* y!0 y!0 y!0 x!1 x!1 u!3 u!3 u!3 u!3)) (* (- 1) (* y!0 y!0 y!0 x!1 u!3 u!3 u!3)) (* u00 x00 y!0 y!0 y!0 u!3 u!3) ?x4173 (* x!1 x!1 x!1 x!1 u!3 u!3 u!3 u!3 u!3) (* u00 x00 y!0 y!0 y!0 y!0 v!2 u!3 u!3) ?x1128 (* 3 (* u00 x00 y!0 x!1 x!1 v!2 u!3 u!3 u!3)) (* 3 (* y!0 y!0 y!0 x!1 v!2 v!2 u!3 u!3 u!3)) (* u00 x00 y!0 y!0 y!0 u!3 u!3 u!3 u!3) (* v00 y00 y!0 y!0 y!0 u!3 u!3 u!3 u!3) (* (- 3) (* v00 y00 y!0 y!0 x!1 v!2 u!3 u!3 u!3)) ?x2687 (* (- 1) (* y!0 y!0 y!0 y!0 y!0 v!2 v!2 u!3 u!3)) ?x2299 (* v00 y00 y!0 y!0 y!0 v!2 u!3 u!3 u!3) (* (- 1) (* y!0 y!0 y!0 y!0 v!2 u!3 u!3 u!3 u!3)) (* (- 1) (* y!0 y!0 y!0 y!0 v!2 v!2 u!3 u!3 u!3)) (* (- 1) (* u00 x00 x!1 x!1 x!1 u!3 u!3 u!3 u!3)) (* 3 (* u00 x00 y!0 x!1 x!1 u!3 u!3 u!3 u!3)) ?x1148 (* (- 2) (* u00 x00 y!0 y!0 y!0 x!1 u!3 u!3 u!3)) (* (- 2) (* u00 x00 y!0 y!0 y!0 x!1 v!2 u!3 u!3)) (* (- 1) (* y!0 y!0 y!0 y!0 x!1 u!3 u!3 u!3 u!3)) (* y!0 y!0 y!0 y!0 x!1 v!2 u!3 u!3 u!3) (* (- 1) (* y!0 y!0 y!0 y!0 y!0 v!2 u!3 u!3 u!3)) (* v00 y00 y!0 y!0 x!1 x!1 u!3 u!3 u!3) ?x2686 (* (- 2) (* v00 y00 y!0 y!0 y!0 x!1 u!3 u!3 u!3)) (* (- 2) (* v00 y00 y!0 y!0 y!0 x!1 v!2 u!3 u!3)) (* v00 y00 y!0 y!0 y!0 y!0 u!3 u!3 u!3) ?x2793 (* 2 (* y!0 y!0 y!0 y!0 x!1 v!2 v!2 u!3 u!3)) ?x2791 ?x2796 (* (- 1) (* y!0 y!0 y!0 y!0 v!2 u!3 u!3)) ?x1035 (* u00 x00 y!0 y!0 y!0 y!0 u!3 u!3 u!3) (* (- 3) (* u00 x00 y!0 y!0 x!1 v!2 u!3 u!3 u!3)) (* 2 (* y!0 y!0 y!0 x!1 v!2 u!3 u!3 u!3 u!3)) (* (- 3) (* y!0 x!1 x!1 x!1 u!3 u!3 u!3 u!3 u!3)) (* (- 2) (* y!0 x!1 x!1 x!1 v!2 u!3 u!3 u!3 u!3)) ?x2827 (* v00 y00 y!0 y!0 y!0 u!3 u!3) (* 3 (* y!0 y!0 x!1 x!1 u!3 u!3 u!3 u!3 u!3)) (* 3 (* v00 y00 y!0 x!1 x!1 v!2 u!3 u!3 u!3)) (* 3 (* v00 y00 y!0 x!1 x!1 u!3 u!3 u!3 u!3)) ?x2645 (* y!0 y!0 y!0 x!1 x!1 v!2 u!3 u!3 u!3) (* u00 x00 y!0 y!0 y!0 v!2 u!3 u!3 u!3) (* u00 x00 y!0 y!0 x!1 x!1 u!3 u!3 u!3) ?x4194)))
 (let (($x2196 (= ?x3020 0)))
 (let (($x836 (or (not $x2196) $x3189)))
 (let (($x1532 (and $x2922 $x836)))
 (let ((?x3308 (* u!3 u!3 v!2 x!1 y!0 y!0 y!0)))
 (let ((?x3395 (* (- 1) (* u!3 u!3 v!2 v!2 x!1 x!1 y!0 y!0 y!0))))
 (let ((?x3388 (* u!3 u!3 v!2 x!1 x!1 y!0 y!0 v00 y00)))
 (let ((?x3306 (* (- 1) (* u!3 u!3 u!3 u!3 x!1))))
 (let ((?x3379 (* (- 1) (* u!3 u!3 u!3 v!2 x!1 x!1 x!1 y!0 y!0))))
 (let ((?x3380 (* u!3 u!3 u!3 u!3 v!2 x!1 x!1 x!1 x!1)))
 (let ((?x3366 (* (- 1) (* u!3 u!3 u!3 v!2 x!1 x!1 x!1 v00 y00))))
 (let ((?x3359 (* u!3 u!3 u!3 x!1 x!1 y!0 y!0)))
 (let ((?x3361 (* (- 1) (* u!3 u!3 x!1 y!0 y!0 u00 x00))))
 (let ((?x3358 (* (- 1) (* u!3 u!3 u!3 v!2 y!0))))
 (let ((?x3355 (* (- 1) (* u!3 u!3 x!1 y!0 y!0 v00 y00))))
 (let ((?x4045 (* u!3 u!3 v!2 x!1 x!1 y!0 y!0 u00 x00)))
 (let ((?x2926 (* (- 1) (* u!3 u!3 u!3 v!2 x!1 x!1 x!1 u00 x00))))
 (let ((?x875 (* u!3 u!3 u!3 v!2 v!2 x!1 x!1 x!1 y!0)))
 (let ((?x4125 (* u!3 u!3 u!3 u00 x00)))
 (let ((?x4156 (* u!3 u!3 u!3 v00 y00)))
 (let ((?x3002 (+ ?x4156 ?x4125 ?x875 ?x2926 (* 3 (* u!3 u!3 v!2 v!2 v!2 x!1 x!1 x!1 y!0)) (* 3 (* u!3 v!2 v!2 v!2 v!2 x!1 x!1 x!1 y!0)) (* v!2 v!2 v!2 v!2 v!2 x!1 x!1 x!1 y!0) (* 3 (* u!3 u!3 u!3 v!2 v!2 x!1 x!1 x!1 x!1)) ?x4045 (* 3 (* u!3 u!3 v!2 v!2 v!2 x!1 x!1 x!1 x!1)) ?x3355 (* u!3 v!2 v!2 v!2 v!2 x!1 x!1 x!1 x!1) ?x3358 ?x3361 ?x3359 (* (- 3) (* u!3 u!3 v!2 v!2 x!1 x!1 x!1 u00 x00)) ?x3366 (* (- 3) (* u!3 v!2 v!2 v!2 x!1 x!1 x!1 u00 x00)) (* (- 1) (* v!2 v!2 v!2 v!2 x!1 x!1 x!1 u00 x00)) ?x3380 ?x3379 ?x3306 ?x3388 ?x3395 (* u!3 u!3 v!2 x!1 x!1 x!1 x!1 u00 x00) (* 2 (* u!3 v!2 v!2 x!1 x!1 x!1 x!1 u00 x00)) ?x3308 (* v!2 v!2 v!2 x!1 x!1 x!1 x!1 u00 x00) (* (- 2) (* u!3 u!3 v!2 x!1 x!1 x!1 y!0 u00 x00)) (* (- 4) (* u!3 v!2 v!2 x!1 x!1 x!1 y!0 u00 x00)) (* (- 2) (* v!2 v!2 v!2 x!1 x!1 x!1 y!0 u00 x00)) (* 2 (* u!3 v!2 v!2 x!1 x!1 y!0 y!0 u00 x00)) (* v!2 v!2 v!2 x!1 x!1 y!0 y!0 u00 x00) (* 3 (* u!3 u!3 v!2 v00 y00)) (* 3 (* u!3 v!2 v!2 v00 y00)) (* v!2 v!2 v!2 v00 y00) (* (- 1) (* u!3 u!3 x!1 x!1 x!1 v00 y00)) (* (- 2) (* u!3 v!2 x!1 x!1 x!1 v00 y00)) (* (- 1) (* v!2 v!2 x!1 x!1 x!1 v00 y00)) (* 2 (* u!3 u!3 x!1 x!1 y!0 v00 y00)) (* 4 (* u!3 v!2 x!1 x!1 y!0 v00 y00)) (* 2 (* v!2 v!2 x!1 x!1 y!0 v00 y00)) (* (- 2) (* u!3 v!2 x!1 y!0 y!0 v00 y00)) (* (- 1) (* v!2 v!2 x!1 y!0 y!0 v00 y00)) (* (- 3) (* u!3 u!3 v!2 v!2 y!0)) (* (- 3) (* u!3 v!2 v!2 v!2 y!0)) (* (- 1) (* v!2 v!2 v!2 v!2 y!0)) (* (- 3) (* u!3 u!3 u!3 v!2 x!1)) (* (- 3) (* u!3 u!3 v!2 v!2 x!1)) (* (- 1) (* u!3 v!2 v!2 v!2 x!1)) (* (- 1) (* u!3 u!3 x!1 x!1 x!1 u00 x00)) (* (- 2) (* u!3 v!2 x!1 x!1 x!1 u00 x00)) (* (- 1) (* v!2 v!2 x!1 x!1 x!1 u00 x00)) (* 2 (* u!3 u!3 x!1 x!1 y!0 u00 x00)) (* 4 (* u!3 v!2 x!1 x!1 y!0 u00 x00)) (* 2 (* v!2 v!2 x!1 x!1 y!0 u00 x00)) (* (- 2) (* u!3 v!2 x!1 y!0 y!0 u00 x00)) (* (- 1) (* v!2 v!2 x!1 y!0 y!0 u00 x00)) (* (- 3) (* u!3 v!2 v!2 x!1 x!1 y!0 y!0)) (* (- 2) (* v!2 v!2 v!2 x!1 x!1 y!0 y!0)) (* u!3 u!3 u!3 x!1 x!1 x!1 x!1) (* 2 (* u!3 u!3 v!2 x!1 x!1 x!1 x!1)) (* u!3 v!2 v!2 x!1 x!1 x!1 x!1) (* (- 2) (* u!3 u!3 u!3 x!1 x!1 x!1 y!0)) (* (- 3) (* u!3 u!3 v!2 x!1 x!1 x!1 y!0)) (* v!2 v!2 v!2 x!1 x!1 x!1 y!0) (* (- 3) (* u!3 u!3 v!2 v!2 x!1 x!1 x!1 v00 y00)) (* (- 3) (* u!3 v!2 v!2 v!2 x!1 x!1 x!1 v00 y00)) (* (- 1) (* v!2 v!2 v!2 v!2 x!1 x!1 x!1 v00 y00)) (* 3 (* u!3 u!3 v!2 u00 x00)) (* 3 (* u!3 v!2 v!2 u00 x00)) (* v!2 v!2 v!2 u00 x00) (* 3 (* u!3 v!2 v!2 v!2 x!1 x!1 x!1 y!0 y!0)) (* 2 (* v!2 v!2 v!2 v!2 x!1 x!1 x!1 y!0 y!0)) (* (- 1) (* u!3 u!3 u!3 v!2 x!1 x!1 x!1 x!1 x!1)) (* (- 2) (* u!3 u!3 v!2 v!2 x!1 x!1 x!1 x!1 x!1)) (* (- 1) (* u!3 v!2 v!2 v!2 x!1 x!1 x!1 x!1 x!1)) (* 2 (* u!3 u!3 u!3 v!2 x!1 x!1 x!1 x!1 y!0)) (* 3 (* u!3 u!3 v!2 v!2 x!1 x!1 x!1 x!1 y!0)) (* (- 1) (* v!2 v!2 v!2 v!2 x!1 x!1 x!1 x!1 y!0)) (* u!3 u!3 v!2 x!1 x!1 x!1 x!1 v00 y00) (* 2 (* u!3 v!2 v!2 x!1 x!1 x!1 x!1 v00 y00)) (* v!2 v!2 v!2 x!1 x!1 x!1 x!1 v00 y00) (* (- 2) (* u!3 u!3 v!2 x!1 x!1 x!1 y!0 v00 y00)) (* (- 4) (* u!3 v!2 v!2 x!1 x!1 x!1 y!0 v00 y00)) (* (- 2) (* v!2 v!2 v!2 x!1 x!1 x!1 y!0 v00 y00)) (* 2 (* u!3 v!2 v!2 x!1 x!1 y!0 y!0 v00 y00)) (* v!2 v!2 v!2 x!1 x!1 y!0 y!0 v00 y00) (* (- 2) (* u!3 v!2 v!2 v!2 x!1 x!1 y!0 y!0 y!0)) (* (- 1) (* v!2 v!2 v!2 v!2 x!1 x!1 y!0 y!0 y!0)) (* 2 (* u!3 v!2 v!2 x!1 y!0 y!0 y!0)) (* v!2 v!2 v!2 x!1 y!0 y!0 y!0))))
 (let ((?x3401 (+ ?x4156 ?x4125 (* (- 3) (* u!3 u!3 u!3 u!3 u!3 x!1 x!1 x!1 y!0)) (* (- 2) (* u!3 u!3 u!3 u!3 v!2 x!1 x!1 x!1 y!0)) ?x875 (* 3 (* u!3 u!3 u!3 u!3 u!3 x!1 x!1 y!0 y!0)) (* (- 3) (* u!3 u!3 u!3 v!2 v!2 x!1 x!1 y!0 y!0)) (* (- 1) (* u!3 u!3 u!3 u!3 u!3 x!1 y!0 y!0 y!0)) (* 2 (* u!3 u!3 u!3 u!3 v!2 x!1 y!0 y!0 y!0)) (* 3 (* u!3 u!3 u!3 v!2 v!2 x!1 y!0 y!0 y!0)) (* (- 1) (* u!3 u!3 u!3 u!3 v!2 y!0 y!0 y!0 y!0)) (* (- 1) (* u!3 u!3 u!3 v!2 v!2 y!0 y!0 y!0 y!0)) (* (- 1) (* u!3 u!3 u!3 u!3 x!1 x!1 x!1 u00 x00)) ?x2926 (* 3 (* u!3 u!3 u!3 u!3 x!1 x!1 y!0 u00 x00)) (* 3 (* u!3 u!3 u!3 v!2 x!1 x!1 y!0 u00 x00)) (* (- 3) (* u!3 u!3 u!3 u!3 x!1 y!0 y!0 u00 x00)) (* (- 3) (* u!3 u!3 u!3 v!2 x!1 y!0 y!0 u00 x00)) (* u!3 u!3 u!3 u!3 y!0 y!0 y!0 u00 x00) (* u!3 u!3 u!3 v!2 y!0 y!0 y!0 u00 x00) (* u!3 u!3 u!3 x!1 x!1 y!0 y!0 u00 x00) ?x4045 (* (- 2) (* u!3 u!3 u!3 x!1 y!0 y!0 y!0 u00 x00)) (* (- 2) (* u!3 u!3 v!2 x!1 y!0 y!0 y!0 u00 x00)) (* u!3 u!3 u!3 y!0 y!0 y!0 y!0 u00 x00) (* u!3 u!3 v!2 y!0 y!0 y!0 y!0 u00 x00) ?x3355 (* u!3 u!3 y!0 y!0 y!0 v00 y00) ?x3358 ?x3361 (* u!3 u!3 y!0 y!0 y!0 u00 x00) ?x3359 (* (- 1) (* u!3 u!3 u!3 x!1 y!0 y!0 y!0)) (* (- 1) (* u!3 u!3 u!3 u!3 x!1 x!1 x!1 v00 y00)) ?x3366 (* 3 (* u!3 u!3 u!3 u!3 x!1 x!1 y!0 v00 y00)) (* 3 (* u!3 u!3 u!3 v!2 x!1 x!1 y!0 v00 y00)) (* (- 3) (* u!3 u!3 u!3 u!3 x!1 y!0 y!0 v00 y00)) (* (- 3) (* u!3 u!3 u!3 v!2 x!1 y!0 y!0 v00 y00)) (* u!3 u!3 u!3 u!3 y!0 y!0 y!0 v00 y00) (* u!3 u!3 u!3 v!2 y!0 y!0 y!0 v00 y00) (* u!3 u!3 u!3 u!3 u!3 x!1 x!1 x!1 x!1) ?x3380 (* (- 1) (* u!3 u!3 u!3 u!3 x!1 x!1 x!1 y!0 y!0)) ?x3379 (* 2 (* u!3 u!3 u!3 u!3 x!1 x!1 y!0 y!0 y!0)) (* u!3 u!3 u!3 v!2 x!1 x!1 y!0 y!0 y!0) (* (- 1) (* u!3 u!3 u!3 u!3 x!1 y!0 y!0 y!0 y!0)) (* u!3 u!3 u!3 v!2 x!1 y!0 y!0 y!0 y!0) (* (- 1) (* u!3 u!3 u!3 v!2 y!0 y!0 y!0 y!0 y!0)) ?x3306 (* u!3 u!3 u!3 x!1 x!1 y!0 y!0 v00 y00) ?x3388 (* (- 2) (* u!3 u!3 u!3 x!1 y!0 y!0 y!0 v00 y00)) (* (- 2) (* u!3 u!3 v!2 x!1 y!0 y!0 y!0 v00 y00)) (* u!3 u!3 u!3 y!0 y!0 y!0 y!0 v00 y00) (* u!3 u!3 v!2 y!0 y!0 y!0 y!0 v00 y00) ?x3395 (* 2 (* u!3 u!3 v!2 v!2 x!1 y!0 y!0 y!0 y!0)) (* (- 1) (* u!3 u!3 v!2 v!2 y!0 y!0 y!0 y!0 y!0)) ?x3308 (* (- 1) (* u!3 u!3 v!2 y!0 y!0 y!0 y!0)))))
 (let (($x4154 (= (+ (* u!3 x!1) (* v!2 y!0) (* (- 1) ?x38) (* (- 1) ?x118)) 0)))
 (let (($x2738 (and $x4154 (or (not (= ?x3401 0)) (not (= ?x3002 0))))))
 (let (($x3788 (exists ((u Int) (v Int) (x Int) (y Int) )(! (let ((?x1742 (* u u v x y y y)))
 (let ((?x1711 (* (- 1) (* u u v v x x y y y))))
 (let ((?x1522 (* u u v x x y y v00 y00)))
 (let ((?x1484 (* (- 1) (* u u u u x))))
 (let ((?x1423 (* (- 1) (* u u u v x x x y y))))
 (let ((?x1050 (* u u u u v x x x x)))
 (let ((?x1017 (* (- 1) (* u u u v x x x v00 y00))))
 (let ((?x804 (* u u u x x y y)))
 (let ((?x781 (* (- 1) (* u u x y y u00 x00))))
 (let ((?x736 (* (- 1) (* u u u v y))))
 (let ((?x696 (* (- 1) (* u u x y y v00 y00))))
 (let ((?x590 (* u u v x x y y u00 x00)))
 (let ((?x542 (* (- 1) (* u u u v x x x u00 x00))))
 (let ((?x128 (* u u u v v x x x y)))
 (let ((?x61 (* u u u u00 x00)))
 (let ((?x48 (* u u u v00 y00)))
 (let ((?x3780 (+ ?x48 ?x61 ?x128 ?x542 (* 3 (* u u v v v x x x y)) (* 3 (* u v v v v x x x y)) (* v v v v v x x x y) (* 3 (* u u u v v x x x x)) ?x590 (* 3 (* u u v v v x x x x)) ?x696 (* u v v v v x x x x) ?x736 ?x781 ?x804 (* (- 3) (* u u v v x x x u00 x00)) ?x1017 (* (- 3) (* u v v v x x x u00 x00)) (* (- 1) (* v v v v x x x u00 x00)) ?x1050 ?x1423 ?x1484 ?x1522 ?x1711 (* u u v x x x x u00 x00) (* 2 (* u v v x x x x u00 x00)) ?x1742 (* v v v x x x x u00 x00) (* (- 2) (* u u v x x x y u00 x00)) (* (- 4) (* u v v x x x y u00 x00)) (* (- 2) (* v v v x x x y u00 x00)) (* 2 (* u v v x x y y u00 x00)) (* v v v x x y y u00 x00) (* 3 (* u u v v00 y00)) (* 3 (* u v v v00 y00)) (* v v v v00 y00) (* (- 1) (* u u x x x v00 y00)) (* (- 2) (* u v x x x v00 y00)) (* (- 1) (* v v x x x v00 y00)) (* 2 (* u u x x y v00 y00)) (* 4 (* u v x x y v00 y00)) (* 2 (* v v x x y v00 y00)) (* (- 2) (* u v x y y v00 y00)) (* (- 1) (* v v x y y v00 y00)) (* (- 3) (* u u v v y)) (* (- 3) (* u v v v y)) (* (- 1) (* v v v v y)) (* (- 3) (* u u u v x)) (* (- 3) (* u u v v x)) (* (- 1) (* u v v v x)) (* (- 1) (* u u x x x u00 x00)) (* (- 2) (* u v x x x u00 x00)) (* (- 1) (* v v x x x u00 x00)) (* 2 (* u u x x y u00 x00)) (* 4 (* u v x x y u00 x00)) (* 2 (* v v x x y u00 x00)) (* (- 2) (* u v x y y u00 x00)) (* (- 1) (* v v x y y u00 x00)) (* (- 3) (* u v v x x y y)) (* (- 2) (* v v v x x y y)) (* u u u x x x x) (* 2 (* u u v x x x x)) (* u v v x x x x) (* (- 2) (* u u u x x x y)) (* (- 3) (* u u v x x x y)) (* v v v x x x y) (* (- 3) (* u u v v x x x v00 y00)) (* (- 3) (* u v v v x x x v00 y00)) (* (- 1) (* v v v v x x x v00 y00)) (* 3 (* u u v u00 x00)) (* 3 (* u v v u00 x00)) (* v v v u00 x00) (* 3 (* u v v v x x x y y)) (* 2 (* v v v v x x x y y)) (* (- 1) (* u u u v x x x x x)) (* (- 2) (* u u v v x x x x x)) (* (- 1) (* u v v v x x x x x)) (* 2 (* u u u v x x x x y)) (* 3 (* u u v v x x x x y)) (* (- 1) (* v v v v x x x x y)) (* u u v x x x x v00 y00) (* 2 (* u v v x x x x v00 y00)) (* v v v x x x x v00 y00) (* (- 2) (* u u v x x x y v00 y00)) (* (- 4) (* u v v x x x y v00 y00)) (* (- 2) (* v v v x x x y v00 y00)) (* 2 (* u v v x x y y v00 y00)) (* v v v x x y y v00 y00) (* (- 2) (* u v v v x x y y y)) (* (- 1) (* v v v v x x y y y)) (* 2 (* u v v x y y y)) (* v v v x y y y))))
 (let ((?x1770 (+ ?x48 ?x61 (* (- 3) (* u u u u u x x x y)) (* (- 2) (* u u u u v x x x y)) ?x128 (* 3 (* u u u u u x x y y)) (* (- 3) (* u u u v v x x y y)) (* (- 1) (* u u u u u x y y y)) (* 2 (* u u u u v x y y y)) (* 3 (* u u u v v x y y y)) (* (- 1) (* u u u u v y y y y)) (* (- 1) (* u u u v v y y y y)) (* (- 1) (* u u u u x x x u00 x00)) ?x542 (* 3 (* u u u u x x y u00 x00)) (* 3 (* u u u v x x y u00 x00)) (* (- 3) (* u u u u x y y u00 x00)) (* (- 3) (* u u u v x y y u00 x00)) (* u u u u y y y u00 x00) (* u u u v y y y u00 x00) (* u u u x x y y u00 x00) ?x590 (* (- 2) (* u u u x y y y u00 x00)) (* (- 2) (* u u v x y y y u00 x00)) (* u u u y y y y u00 x00) (* u u v y y y y u00 x00) ?x696 (* u u y y y v00 y00) ?x736 ?x781 (* u u y y y u00 x00) ?x804 (* (- 1) (* u u u x y y y)) (* (- 1) (* u u u u x x x v00 y00)) ?x1017 (* 3 (* u u u u x x y v00 y00)) (* 3 (* u u u v x x y v00 y00)) (* (- 3) (* u u u u x y y v00 y00)) (* (- 3) (* u u u v x y y v00 y00)) (* u u u u y y y v00 y00) (* u u u v y y y v00 y00) (* u u u u u x x x x) ?x1050 (* (- 1) (* u u u u x x x y y)) ?x1423 (* 2 (* u u u u x x y y y)) (* u u u v x x y y y) (* (- 1) (* u u u u x y y y y)) (* u u u v x y y y y) (* (- 1) (* u u u v y y y y y)) ?x1484 (* u u u x x y y v00 y00) ?x1522 (* (- 2) (* u u u x y y y v00 y00)) (* (- 2) (* u u v x y y y v00 y00)) (* u u u y y y y v00 y00) (* u u v y y y y v00 y00) ?x1711 (* 2 (* u u v v x y y y y)) (* (- 1) (* u u v v y y y y y)) ?x1742 (* (- 1) (* u u v y y y y)))))
 (let ((?x118 (* u00 x00)))
 (let ((?x119 (* (- 1) ?x118)))
 (let ((?x38 (* v00 y00)))
 (let ((?x135 (* (- 1) ?x38)))
 (let ((?x34 (* v y)))
 (let ((?x33 (* u x)))
 (and (= (+ ?x33 ?x34 ?x135 ?x119) 0) (or (not (= ?x1770 0)) (not (= ?x3780 0)))))))))))))))))))))))))))) :qid k!29))
 ))
 (let (($x2033 (exists ((u Int) (v Int) (x Int) (y Int) )(! (let ((?x1187 (+ y (* (- 1) x))))
 (let ((?x75 (+ u v)))
 (let ((?x819 (+ (* ?x75 ?x75 ?x75 ?x1187 x x x v v) (* (- 1) (* u00 x00 ?x75 ?x75 ?x75 x x x v)) (* u00 x00 ?x75 ?x75 ?x1187 ?x1187 x x v) (* v00 y00 ?x75 ?x75 ?x75) (* (- 1) (* v00 y00 ?x75 ?x75 ?x1187 ?x1187 x)) (* (- 1) (* ?x75 ?x75 ?x75 ?x1187 v)) (* (- 1) (* u00 x00 ?x75 ?x75 ?x1187 ?x1187 x)) (* ?x75 ?x75 ?x75 ?x1187 ?x1187 x x) (* (- 1) (* v00 y00 ?x75 ?x75 ?x75 x x x v)) (* ?x75 ?x75 ?x75 ?x75 x x x x v) (* u00 x00 ?x75 ?x75 ?x75) (* (- 1) (* ?x75 ?x75 ?x75 ?x1187 ?x1187 x x x v)) (* (- 1) (* ?x75 ?x75 ?x75 ?x75 x)) (* v00 y00 ?x75 ?x75 ?x1187 ?x1187 x x v) (* (- 1) (* ?x75 ?x75 ?x1187 ?x1187 ?x1187 x x v v)) (* ?x75 ?x75 ?x1187 ?x1187 ?x1187 x v))))
 (let ((?x2895 (+ x (* (- 1) y))))
 (let ((?x42 (+ v u)))
 (let ((?x751 (+ (* ?x42 ?x42 ?x2895 ?x2895 ?x2895 y u u u) (* (- 1) (* u00 x00 ?x42 ?x2895 ?x2895 ?x2895 u u u)) (* u00 x00 ?x42 ?x2895 ?x2895 y y u u) (* v00 y00 u u u) (* (- 1) (* v00 y00 ?x2895 y y u u)) (* (- 1) (* ?x42 y u u u)) (* (- 1) (* u00 x00 ?x2895 y y u u)) (* ?x2895 ?x2895 y y u u u) (* (- 1) (* v00 y00 ?x42 ?x2895 ?x2895 ?x2895 u u u)) (* ?x42 ?x2895 ?x2895 ?x2895 ?x2895 u u u u) (* u00 x00 u u u) (* (- 1) (* ?x42 ?x2895 ?x2895 ?x2895 y y u u u)) (* (- 1) (* ?x2895 u u u u)) (* v00 y00 ?x42 ?x2895 ?x2895 y y u u) (* (- 1) (* ?x42 ?x42 ?x2895 ?x2895 y y y u u)) (* ?x42 ?x2895 y y y u u))))
 (let (($x826 (or (not (= ?x751 0)) (not (= ?x819 0)))))
 (let ((?x38 (* v00 y00)))
 (let ((?x118 (* u00 x00)))
 (let (($x1929 (= (+ ?x118 (* (- 1) (* x u)) (* (- 1) (* y v)) ?x38) 0)))
 (and $x1929 $x826))))))))))) :qid k!29))
 ))
 (let ((?x2886 (lambda ((u Int) (v Int) (x Int) (y Int) )(let ((?x1742 (* u u v x y y y)))
 (let ((?x1711 (* (- 1) (* u u v v x x y y y))))
 (let ((?x1522 (* u u v x x y y v00 y00)))
 (let ((?x1484 (* (- 1) (* u u u u x))))
 (let ((?x1423 (* (- 1) (* u u u v x x x y y))))
 (let ((?x1050 (* u u u u v x x x x)))
 (let ((?x1017 (* (- 1) (* u u u v x x x v00 y00))))
 (let ((?x804 (* u u u x x y y)))
 (let ((?x781 (* (- 1) (* u u x y y u00 x00))))
 (let ((?x736 (* (- 1) (* u u u v y))))
 (let ((?x696 (* (- 1) (* u u x y y v00 y00))))
 (let ((?x590 (* u u v x x y y u00 x00)))
 (let ((?x542 (* (- 1) (* u u u v x x x u00 x00))))
 (let ((?x128 (* u u u v v x x x y)))
 (let ((?x61 (* u u u u00 x00)))
 (let ((?x48 (* u u u v00 y00)))
 (let ((?x3780 (+ ?x48 ?x61 ?x128 ?x542 (* 3 (* u u v v v x x x y)) (* 3 (* u v v v v x x x y)) (* v v v v v x x x y) (* 3 (* u u u v v x x x x)) ?x590 (* 3 (* u u v v v x x x x)) ?x696 (* u v v v v x x x x) ?x736 ?x781 ?x804 (* (- 3) (* u u v v x x x u00 x00)) ?x1017 (* (- 3) (* u v v v x x x u00 x00)) (* (- 1) (* v v v v x x x u00 x00)) ?x1050 ?x1423 ?x1484 ?x1522 ?x1711 (* u u v x x x x u00 x00) (* 2 (* u v v x x x x u00 x00)) ?x1742 (* v v v x x x x u00 x00) (* (- 2) (* u u v x x x y u00 x00)) (* (- 4) (* u v v x x x y u00 x00)) (* (- 2) (* v v v x x x y u00 x00)) (* 2 (* u v v x x y y u00 x00)) (* v v v x x y y u00 x00) (* 3 (* u u v v00 y00)) (* 3 (* u v v v00 y00)) (* v v v v00 y00) (* (- 1) (* u u x x x v00 y00)) (* (- 2) (* u v x x x v00 y00)) (* (- 1) (* v v x x x v00 y00)) (* 2 (* u u x x y v00 y00)) (* 4 (* u v x x y v00 y00)) (* 2 (* v v x x y v00 y00)) (* (- 2) (* u v x y y v00 y00)) (* (- 1) (* v v x y y v00 y00)) (* (- 3) (* u u v v y)) (* (- 3) (* u v v v y)) (* (- 1) (* v v v v y)) (* (- 3) (* u u u v x)) (* (- 3) (* u u v v x)) (* (- 1) (* u v v v x)) (* (- 1) (* u u x x x u00 x00)) (* (- 2) (* u v x x x u00 x00)) (* (- 1) (* v v x x x u00 x00)) (* 2 (* u u x x y u00 x00)) (* 4 (* u v x x y u00 x00)) (* 2 (* v v x x y u00 x00)) (* (- 2) (* u v x y y u00 x00)) (* (- 1) (* v v x y y u00 x00)) (* (- 3) (* u v v x x y y)) (* (- 2) (* v v v x x y y)) (* u u u x x x x) (* 2 (* u u v x x x x)) (* u v v x x x x) (* (- 2) (* u u u x x x y)) (* (- 3) (* u u v x x x y)) (* v v v x x x y) (* (- 3) (* u u v v x x x v00 y00)) (* (- 3) (* u v v v x x x v00 y00)) (* (- 1) (* v v v v x x x v00 y00)) (* 3 (* u u v u00 x00)) (* 3 (* u v v u00 x00)) (* v v v u00 x00) (* 3 (* u v v v x x x y y)) (* 2 (* v v v v x x x y y)) (* (- 1) (* u u u v x x x x x)) (* (- 2) (* u u v v x x x x x)) (* (- 1) (* u v v v x x x x x)) (* 2 (* u u u v x x x x y)) (* 3 (* u u v v x x x x y)) (* (- 1) (* v v v v x x x x y)) (* u u v x x x x v00 y00) (* 2 (* u v v x x x x v00 y00)) (* v v v x x x x v00 y00) (* (- 2) (* u u v x x x y v00 y00)) (* (- 4) (* u v v x x x y v00 y00)) (* (- 2) (* v v v x x x y v00 y00)) (* 2 (* u v v x x y y v00 y00)) (* v v v x x y y v00 y00) (* (- 2) (* u v v v x x y y y)) (* (- 1) (* v v v v x x y y y)) (* 2 (* u v v x y y y)) (* v v v x y y y))))
 (let ((?x1770 (+ ?x48 ?x61 (* (- 3) (* u u u u u x x x y)) (* (- 2) (* u u u u v x x x y)) ?x128 (* 3 (* u u u u u x x y y)) (* (- 3) (* u u u v v x x y y)) (* (- 1) (* u u u u u x y y y)) (* 2 (* u u u u v x y y y)) (* 3 (* u u u v v x y y y)) (* (- 1) (* u u u u v y y y y)) (* (- 1) (* u u u v v y y y y)) (* (- 1) (* u u u u x x x u00 x00)) ?x542 (* 3 (* u u u u x x y u00 x00)) (* 3 (* u u u v x x y u00 x00)) (* (- 3) (* u u u u x y y u00 x00)) (* (- 3) (* u u u v x y y u00 x00)) (* u u u u y y y u00 x00) (* u u u v y y y u00 x00) (* u u u x x y y u00 x00) ?x590 (* (- 2) (* u u u x y y y u00 x00)) (* (- 2) (* u u v x y y y u00 x00)) (* u u u y y y y u00 x00) (* u u v y y y y u00 x00) ?x696 (* u u y y y v00 y00) ?x736 ?x781 (* u u y y y u00 x00) ?x804 (* (- 1) (* u u u x y y y)) (* (- 1) (* u u u u x x x v00 y00)) ?x1017 (* 3 (* u u u u x x y v00 y00)) (* 3 (* u u u v x x y v00 y00)) (* (- 3) (* u u u u x y y v00 y00)) (* (- 3) (* u u u v x y y v00 y00)) (* u u u u y y y v00 y00) (* u u u v y y y v00 y00) (* u u u u u x x x x) ?x1050 (* (- 1) (* u u u u x x x y y)) ?x1423 (* 2 (* u u u u x x y y y)) (* u u u v x x y y y) (* (- 1) (* u u u u x y y y y)) (* u u u v x y y y y) (* (- 1) (* u u u v y y y y y)) ?x1484 (* u u u x x y y v00 y00) ?x1522 (* (- 2) (* u u u x y y y v00 y00)) (* (- 2) (* u u v x y y y v00 y00)) (* u u u y y y y v00 y00) (* u u v y y y y v00 y00) ?x1711 (* 2 (* u u v v x y y y y)) (* (- 1) (* u u v v y y y y y)) ?x1742 (* (- 1) (* u u v y y y y)))))
 (let ((?x118 (* u00 x00)))
 (let ((?x119 (* (- 1) ?x118)))
 (let ((?x38 (* v00 y00)))
 (let ((?x135 (* (- 1) ?x38)))
 (let ((?x34 (* v y)))
 (let ((?x33 (* u x)))
 (let (($x374 (and (= (+ ?x33 ?x34 ?x135 ?x119) 0) (or (not (= ?x1770 0)) (not (= ?x3780 0))))))
 (let ((?x1187 (+ y (* (- 1) x))))
 (let ((?x75 (+ u v)))
 (let ((?x819 (+ (* ?x75 ?x75 ?x75 ?x1187 x x x v v) (* (- 1) (* u00 x00 ?x75 ?x75 ?x75 x x x v)) (* u00 x00 ?x75 ?x75 ?x1187 ?x1187 x x v) (* v00 y00 ?x75 ?x75 ?x75) (* (- 1) (* v00 y00 ?x75 ?x75 ?x1187 ?x1187 x)) (* (- 1) (* ?x75 ?x75 ?x75 ?x1187 v)) (* (- 1) (* u00 x00 ?x75 ?x75 ?x1187 ?x1187 x)) (* ?x75 ?x75 ?x75 ?x1187 ?x1187 x x) (* (- 1) (* v00 y00 ?x75 ?x75 ?x75 x x x v)) (* ?x75 ?x75 ?x75 ?x75 x x x x v) (* u00 x00 ?x75 ?x75 ?x75) (* (- 1) (* ?x75 ?x75 ?x75 ?x1187 ?x1187 x x x v)) (* (- 1) (* ?x75 ?x75 ?x75 ?x75 x)) (* v00 y00 ?x75 ?x75 ?x1187 ?x1187 x x v) (* (- 1) (* ?x75 ?x75 ?x1187 ?x1187 ?x1187 x x v v)) (* ?x75 ?x75 ?x1187 ?x1187 ?x1187 x v))))
 (let ((?x2895 (+ x (* (- 1) y))))
 (let ((?x42 (+ v u)))
 (let ((?x751 (+ (* ?x42 ?x42 ?x2895 ?x2895 ?x2895 y u u u) (* (- 1) (* u00 x00 ?x42 ?x2895 ?x2895 ?x2895 u u u)) (* u00 x00 ?x42 ?x2895 ?x2895 y y u u) (* v00 y00 u u u) (* (- 1) (* v00 y00 ?x2895 y y u u)) (* (- 1) (* ?x42 y u u u)) (* (- 1) (* u00 x00 ?x2895 y y u u)) (* ?x2895 ?x2895 y y u u u) (* (- 1) (* v00 y00 ?x42 ?x2895 ?x2895 ?x2895 u u u)) (* ?x42 ?x2895 ?x2895 ?x2895 ?x2895 u u u u) (* u00 x00 u u u) (* (- 1) (* ?x42 ?x2895 ?x2895 ?x2895 y y u u u)) (* (- 1) (* ?x2895 u u u u)) (* v00 y00 ?x42 ?x2895 ?x2895 y y u u) (* (- 1) (* ?x42 ?x42 ?x2895 ?x2895 y y y u u)) (* ?x42 ?x2895 y y y u u))))
 (let (($x826 (or (not (= ?x751 0)) (not (= ?x819 0)))))
 (let (($x1929 (= (+ ?x118 (* (- 1) (* x u)) (* (- 1) (* y v)) ?x38) 0)))
 (let (($x1948 (and $x1929 $x826)))
 (rewrite (= $x1948 $x374)))))))))))))))))))))))))))))))))))))
 ))
 (let (($x808 (exists ((u Int) (v Int) (x Int) (y Int) )(! (let ((?x1187 (+ y (* (- 1) x))))
 (let ((?x75 (+ u v)))
 (let ((?x819 (+ (* ?x75 ?x75 ?x75 ?x1187 x x x v v) (* (- 1) (* u00 x00 ?x75 ?x75 ?x75 x x x v)) (* u00 x00 ?x75 ?x75 ?x1187 ?x1187 x x v) (* v00 y00 ?x75 ?x75 ?x75) (* (- 1) (* v00 y00 ?x75 ?x75 ?x1187 ?x1187 x)) (* (- 1) (* ?x75 ?x75 ?x75 ?x1187 v)) (* (- 1) (* u00 x00 ?x75 ?x75 ?x1187 ?x1187 x)) (* ?x75 ?x75 ?x75 ?x1187 ?x1187 x x) (* (- 1) (* v00 y00 ?x75 ?x75 ?x75 x x x v)) (* ?x75 ?x75 ?x75 ?x75 x x x x v) (* u00 x00 ?x75 ?x75 ?x75) (* (- 1) (* ?x75 ?x75 ?x75 ?x1187 ?x1187 x x x v)) (* (- 1) (* ?x75 ?x75 ?x75 ?x75 x)) (* v00 y00 ?x75 ?x75 ?x1187 ?x1187 x x v) (* (- 1) (* ?x75 ?x75 ?x1187 ?x1187 ?x1187 x x v v)) (* ?x75 ?x75 ?x1187 ?x1187 ?x1187 x v))))
 (let ((?x2895 (+ x (* (- 1) y))))
 (let ((?x42 (+ v u)))
 (let ((?x751 (+ (* ?x42 ?x42 ?x2895 ?x2895 ?x2895 y u u u) (* (- 1) (* u00 x00 ?x42 ?x2895 ?x2895 ?x2895 u u u)) (* u00 x00 ?x42 ?x2895 ?x2895 y y u u) (* v00 y00 u u u) (* (- 1) (* v00 y00 ?x2895 y y u u)) (* (- 1) (* ?x42 y u u u)) (* (- 1) (* u00 x00 ?x2895 y y u u)) (* ?x2895 ?x2895 y y u u u) (* (- 1) (* v00 y00 ?x42 ?x2895 ?x2895 ?x2895 u u u)) (* ?x42 ?x2895 ?x2895 ?x2895 ?x2895 u u u u) (* u00 x00 u u u) (* (- 1) (* ?x42 ?x2895 ?x2895 ?x2895 y y u u u)) (* (- 1) (* ?x2895 u u u u)) (* v00 y00 ?x42 ?x2895 ?x2895 y y u u) (* (- 1) (* ?x42 ?x42 ?x2895 ?x2895 y y y u u)) (* ?x42 ?x2895 y y y u u))))
 (let (($x826 (or (not (= ?x751 0)) (not (= ?x819 0)))))
 (let ((?x38 (* v00 y00)))
 (let ((?x135 (* (- 1) ?x38)))
 (let ((?x2340 (* y v)))
 (let ((?x2333 (* x u)))
 (let ((?x118 (* u00 x00)))
 (let ((?x119 (* (- 1) ?x118)))
 (and (= (+ ?x119 ?x2333 ?x2340 ?x135) 0) $x826)))))))))))))) :qid k!29))
 ))
 (let ((?x2039 (lambda ((u Int) (v Int) (x Int) (y Int) )(let ((?x1187 (+ y (* (- 1) x))))
 (let ((?x75 (+ u v)))
 (let ((?x819 (+ (* ?x75 ?x75 ?x75 ?x1187 x x x v v) (* (- 1) (* u00 x00 ?x75 ?x75 ?x75 x x x v)) (* u00 x00 ?x75 ?x75 ?x1187 ?x1187 x x v) (* v00 y00 ?x75 ?x75 ?x75) (* (- 1) (* v00 y00 ?x75 ?x75 ?x1187 ?x1187 x)) (* (- 1) (* ?x75 ?x75 ?x75 ?x1187 v)) (* (- 1) (* u00 x00 ?x75 ?x75 ?x1187 ?x1187 x)) (* ?x75 ?x75 ?x75 ?x1187 ?x1187 x x) (* (- 1) (* v00 y00 ?x75 ?x75 ?x75 x x x v)) (* ?x75 ?x75 ?x75 ?x75 x x x x v) (* u00 x00 ?x75 ?x75 ?x75) (* (- 1) (* ?x75 ?x75 ?x75 ?x1187 ?x1187 x x x v)) (* (- 1) (* ?x75 ?x75 ?x75 ?x75 x)) (* v00 y00 ?x75 ?x75 ?x1187 ?x1187 x x v) (* (- 1) (* ?x75 ?x75 ?x1187 ?x1187 ?x1187 x x v v)) (* ?x75 ?x75 ?x1187 ?x1187 ?x1187 x v))))
 (let ((?x2895 (+ x (* (- 1) y))))
 (let ((?x42 (+ v u)))
 (let ((?x751 (+ (* ?x42 ?x42 ?x2895 ?x2895 ?x2895 y u u u) (* (- 1) (* u00 x00 ?x42 ?x2895 ?x2895 ?x2895 u u u)) (* u00 x00 ?x42 ?x2895 ?x2895 y y u u) (* v00 y00 u u u) (* (- 1) (* v00 y00 ?x2895 y y u u)) (* (- 1) (* ?x42 y u u u)) (* (- 1) (* u00 x00 ?x2895 y y u u)) (* ?x2895 ?x2895 y y u u u) (* (- 1) (* v00 y00 ?x42 ?x2895 ?x2895 ?x2895 u u u)) (* ?x42 ?x2895 ?x2895 ?x2895 ?x2895 u u u u) (* u00 x00 u u u) (* (- 1) (* ?x42 ?x2895 ?x2895 ?x2895 y y u u u)) (* (- 1) (* ?x2895 u u u u)) (* v00 y00 ?x42 ?x2895 ?x2895 y y u u) (* (- 1) (* ?x42 ?x42 ?x2895 ?x2895 y y y u u)) (* ?x42 ?x2895 y y y u u))))
 (let (($x826 (or (not (= ?x751 0)) (not (= ?x819 0)))))
 (let ((?x38 (* v00 y00)))
 (let ((?x118 (* u00 x00)))
 (let (($x1929 (= (+ ?x118 (* (- 1) (* x u)) (* (- 1) (* y v)) ?x38) 0)))
 (let (($x1948 (and $x1929 $x826)))
 (let (($x2307 (= (+ (* (- 1) ?x118) (* x u) (* y v) (* (- 1) ?x38)) 0)))
 (let (($x2315 (and $x2307 $x826)))
 (rewrite (= $x2315 $x1948))))))))))))))))
 ))
 (let (($x110 (exists ((u Int) (v Int) (x Int) (y Int) )(! (let ((?x76 (- y x)))
 (let ((?x75 (+ u v)))
 (let ((?x97 (* ?x75 ?x75 ?x75 ?x75 x)))
 (let ((?x79 (- (* ?x75 ?x75 ?x75 v v x x x ?x76) (* ?x75 ?x75 ?x75 u00 v x x x x00))))
 (let ((?x82 (+ ?x79 (* ?x75 ?x75 u00 v x x x00 ?x76 ?x76) (* ?x75 ?x75 ?x75 v00 y00))))
 (let ((?x87 (- (- ?x82 (* ?x75 ?x75 v00 x ?x76 ?x76 y00)) (* ?x75 ?x75 ?x75 v ?x76))))
 (let ((?x90 (+ (- ?x87 (* ?x75 ?x75 u00 x x00 ?x76 ?x76)) (* ?x75 ?x75 ?x75 x x ?x76 ?x76))))
 (let ((?x95 (+ (- ?x90 (* ?x75 ?x75 ?x75 v v00 x x x y00)) (* ?x75 ?x75 ?x75 ?x75 v x x x x) (* ?x75 ?x75 ?x75 u00 x00))))
 (let ((?x101 (+ (- (- ?x95 (* ?x75 ?x75 ?x75 v x x x ?x76 ?x76)) ?x97) (* ?x75 ?x75 v v00 x x ?x76 ?x76 y00))))
 (let ((?x105 (+ (- ?x101 (* ?x75 ?x75 v v x x ?x76 ?x76 ?x76)) (* ?x75 ?x75 v x ?x76 ?x76 ?x76))))
 (let ((?x43 (- x y)))
 (let ((?x42 (+ v u)))
 (let ((?x61 (* u u u u00 x00)))
 (let ((?x48 (* u u u v00 y00)))
 (let ((?x46 (- (* u u u ?x42 ?x42 ?x43 ?x43 ?x43 y) (* u u u u00 ?x42 ?x43 ?x43 ?x43 x00))))
 (let ((?x53 (- (+ ?x46 (* u u u00 ?x42 ?x43 ?x43 x00 y y) ?x48) (* u u v00 ?x43 y y y00))))
 (let ((?x55 (- (- ?x53 (* u u u ?x42 y)) (* u u u00 ?x43 x00 y y))))
 (let ((?x59 (- (+ ?x55 (* u u u ?x43 ?x43 y y)) (* u u u ?x42 v00 ?x43 ?x43 ?x43 y00))))
 (let ((?x65 (- (+ ?x59 (* u u u u ?x42 ?x43 ?x43 ?x43 ?x43) ?x61) (* u u u ?x42 ?x43 ?x43 ?x43 y y))))
 (let ((?x68 (+ (- ?x65 (* u u u u ?x43)) (* u u ?x42 v00 ?x43 ?x43 y y y00))))
 (let ((?x72 (+ (- ?x68 (* u u ?x42 ?x42 ?x43 ?x43 y y y)) (* u u ?x42 ?x43 y y y))))
 (let ((?x38 (* v00 y00)))
 (let (($x41 (= (- (+ (* (- 1) u00 x00) (* u x) (* v y)) ?x38) 0)))
 (and $x41 (or (not (= ?x72 0)) (not (= ?x105 0))))))))))))))))))))))))))) :qid k!29))
 ))
 (let ((?x703 (lambda ((u Int) (v Int) (x Int) (y Int) )(let ((?x1187 (+ y (* (- 1) x))))
 (let ((?x75 (+ u v)))
 (let ((?x819 (+ (* ?x75 ?x75 ?x75 ?x1187 x x x v v) (* (- 1) (* u00 x00 ?x75 ?x75 ?x75 x x x v)) (* u00 x00 ?x75 ?x75 ?x1187 ?x1187 x x v) (* v00 y00 ?x75 ?x75 ?x75) (* (- 1) (* v00 y00 ?x75 ?x75 ?x1187 ?x1187 x)) (* (- 1) (* ?x75 ?x75 ?x75 ?x1187 v)) (* (- 1) (* u00 x00 ?x75 ?x75 ?x1187 ?x1187 x)) (* ?x75 ?x75 ?x75 ?x1187 ?x1187 x x) (* (- 1) (* v00 y00 ?x75 ?x75 ?x75 x x x v)) (* ?x75 ?x75 ?x75 ?x75 x x x x v) (* u00 x00 ?x75 ?x75 ?x75) (* (- 1) (* ?x75 ?x75 ?x75 ?x1187 ?x1187 x x x v)) (* (- 1) (* ?x75 ?x75 ?x75 ?x75 x)) (* v00 y00 ?x75 ?x75 ?x1187 ?x1187 x x v) (* (- 1) (* ?x75 ?x75 ?x1187 ?x1187 ?x1187 x x v v)) (* ?x75 ?x75 ?x1187 ?x1187 ?x1187 x v))))
 (let ((?x2895 (+ x (* (- 1) y))))
 (let ((?x42 (+ v u)))
 (let ((?x751 (+ (* ?x42 ?x42 ?x2895 ?x2895 ?x2895 y u u u) (* (- 1) (* u00 x00 ?x42 ?x2895 ?x2895 ?x2895 u u u)) (* u00 x00 ?x42 ?x2895 ?x2895 y y u u) (* v00 y00 u u u) (* (- 1) (* v00 y00 ?x2895 y y u u)) (* (- 1) (* ?x42 y u u u)) (* (- 1) (* u00 x00 ?x2895 y y u u)) (* ?x2895 ?x2895 y y u u u) (* (- 1) (* v00 y00 ?x42 ?x2895 ?x2895 ?x2895 u u u)) (* ?x42 ?x2895 ?x2895 ?x2895 ?x2895 u u u u) (* u00 x00 u u u) (* (- 1) (* ?x42 ?x2895 ?x2895 ?x2895 y y u u u)) (* (- 1) (* ?x2895 u u u u)) (* v00 y00 ?x42 ?x2895 ?x2895 y y u u) (* (- 1) (* ?x42 ?x42 ?x2895 ?x2895 y y y u u)) (* ?x42 ?x2895 y y y u u))))
 (let (($x826 (or (not (= ?x751 0)) (not (= ?x819 0)))))
 (let ((?x38 (* v00 y00)))
 (let ((?x135 (* (- 1) ?x38)))
 (let ((?x2340 (* y v)))
 (let ((?x2333 (* x u)))
 (let ((?x118 (* u00 x00)))
 (let ((?x119 (* (- 1) ?x118)))
 (let (($x2315 (and (= (+ ?x119 ?x2333 ?x2340 ?x135) 0) $x826)))
 (let ((?x76 (- y x)))
 (let ((?x97 (* ?x75 ?x75 ?x75 ?x75 x)))
 (let ((?x79 (- (* ?x75 ?x75 ?x75 v v x x x ?x76) (* ?x75 ?x75 ?x75 u00 v x x x x00))))
 (let ((?x82 (+ ?x79 (* ?x75 ?x75 u00 v x x x00 ?x76 ?x76) (* ?x75 ?x75 ?x75 v00 y00))))
 (let ((?x87 (- (- ?x82 (* ?x75 ?x75 v00 x ?x76 ?x76 y00)) (* ?x75 ?x75 ?x75 v ?x76))))
 (let ((?x90 (+ (- ?x87 (* ?x75 ?x75 u00 x x00 ?x76 ?x76)) (* ?x75 ?x75 ?x75 x x ?x76 ?x76))))
 (let ((?x95 (+ (- ?x90 (* ?x75 ?x75 ?x75 v v00 x x x y00)) (* ?x75 ?x75 ?x75 ?x75 v x x x x) (* ?x75 ?x75 ?x75 u00 x00))))
 (let ((?x101 (+ (- (- ?x95 (* ?x75 ?x75 ?x75 v x x x ?x76 ?x76)) ?x97) (* ?x75 ?x75 v v00 x x ?x76 ?x76 y00))))
 (let ((?x105 (+ (- ?x101 (* ?x75 ?x75 v v x x ?x76 ?x76 ?x76)) (* ?x75 ?x75 v x ?x76 ?x76 ?x76))))
 (let ((?x43 (- x y)))
 (let ((?x61 (* u u u u00 x00)))
 (let ((?x48 (* u u u v00 y00)))
 (let ((?x46 (- (* u u u ?x42 ?x42 ?x43 ?x43 ?x43 y) (* u u u u00 ?x42 ?x43 ?x43 ?x43 x00))))
 (let ((?x53 (- (+ ?x46 (* u u u00 ?x42 ?x43 ?x43 x00 y y) ?x48) (* u u v00 ?x43 y y y00))))
 (let ((?x55 (- (- ?x53 (* u u u ?x42 y)) (* u u u00 ?x43 x00 y y))))
 (let ((?x59 (- (+ ?x55 (* u u u ?x43 ?x43 y y)) (* u u u ?x42 v00 ?x43 ?x43 ?x43 y00))))
 (let ((?x65 (- (+ ?x59 (* u u u u ?x42 ?x43 ?x43 ?x43 ?x43) ?x61) (* u u u ?x42 ?x43 ?x43 ?x43 y y))))
 (let ((?x68 (+ (- ?x65 (* u u u u ?x43)) (* u u ?x42 v00 ?x43 ?x43 y y y00))))
 (let ((?x72 (+ (- ?x68 (* u u ?x42 ?x42 ?x43 ?x43 y y y)) (* u u ?x42 ?x43 y y y))))
 (let (($x41 (= (- (+ (* (- 1) u00 x00) (* u x) (* v y)) ?x38) 0)))
 (let (($x109 (and $x41 (or (not (= ?x72 0)) (not (= ?x105 0))))))
 (rewrite (= $x109 $x2315))))))))))))))))))))))))))))))))))))))
 ))
 (let ((@x111 (asserted $x110)))
 (let ((@x2017 (mp (mp @x111 (quant-intro (proof-bind ?x703) (= $x110 $x808)) $x808) (rewrite (= $x808 $x808)) $x808)))
 (let ((@x3516 (mp (mp @x2017 (quant-intro (proof-bind ?x2039) (= $x808 $x2033)) $x2033) (quant-intro (proof-bind ?x2886) (= $x2033 $x3788)) $x3788)))
 (let ((@x411 (mp (mp~ @x3516 (sk (~ $x3788 $x2738)) $x2738) (rewrite (= $x2738 $x1532)) $x1532)))
 (let ((@x3288 (and-elim @x411 $x2922)))
 (let ((@x956 (unit-resolution ((_ th-lemma arith triangle-eq) (or (not $x2922) $x1031)) @x3288 $x1031)))
 (let (($x4171 (>= ?x450 0)))
 (let ((@x958 (unit-resolution ((_ th-lemma arith triangle-eq) (or (not $x2922) $x4171)) @x3288 $x4171)))
 (let (($x813 (not (<= ?x3903 0))))
 (let (($x1214 (>= ?x3903 0)))
 (let (($x3493 (>= ?x3020 0)))
 (let (($x3479 (<= ?x3020 0)))
 (let ((@x851 (unit-resolution ((_ th-lemma arith triangle-eq) (or $x2196 (not $x3479) (not $x3493))) (lemma ((_ th-lemma arith) (hypothesis (not $x3479)) @x958 @x956 false) $x3479) (lemma ((_ th-lemma arith) (hypothesis (not $x3493)) @x958 @x956 false) $x3493) $x2196)))
 (let ((@x2823 (unit-resolution ((_ th-lemma arith triangle-eq) (or $x833 $x813 (not $x1214))) (unit-resolution (and-elim @x411 $x836) @x851 $x3189) (lemma ((_ th-lemma arith) (hypothesis (not $x1214)) @x958 @x956 false) $x1214) $x813)))
 ((_ th-lemma arith) @x2823 @x958 @x956 false))))))))))))))))))))))))))))))))))))))))))))))))))))))))))))))))))))))))

(:added-eqs                 2
 :arith-assert-diseq        6
 :arith-assert-lower        7
 :arith-assert-upper        6
 :arith-conflicts           4
 :arith-eq-adapter          3
 :arith-gcd-tests           4
 :arith-grobner             4
 :arith-max-min             1200
 :arith-nonlinear-horner    11
 :arith-num-rows            3
 :arith-patches             4
 :arith-patches_succ        4
 :arith-pivots              3
 :arith-tableau-max-columns 161
 :arith-tableau-max-rows    3
 :conflicts                 4
 :decisions                 6
 :del-clause                12
 :final-checks              4
 :max-memory                4.25
 :memory                    3.55
 :mk-bool-var               15
 :mk-clause                 12
 :num-allocs                1748265
 :num-checks                1
 :propagations              14
 :rlimit-count              16648
 :time                      0.04
 :total-time                0.05)
